NAME: FLS3_1054.hcp
COMMENT: 
TYPE: HCP
DIMENSION: 1054
EDGE_DATA_FORMAT : EDGE_LIST
EDGE_DATA_SECTION
1 2
1 3
1 21
1 22
2 1
2 3
2 23
2 38
3 1
3 2
3 53
3 54
4 5
4 6
4 55
4 70
5 4
5 6
5 85
5 86
6 4
6 5
6 87
6 102
7 8
7 16
7 22
7 118
8 7
8 9
8 10
8 22
9 8
9 10
9 14
9 19
10 8
10 9
10 11
10 22
11 10
11 12
11 17
11 22
12 11
12 13
12 21
12 22
13 12
13 14
13 15
13 22
14 9
14 13
14 15
14 19
15 13
15 14
15 16
15 22
16 7
16 15
16 17
16 22
17 11
17 16
17 18
17 22
18 17
18 19
18 20
18 22
19 9
19 14
19 18
19 20
20 18
20 19
20 21
20 22
21 1
21 12
21 20
21 22
22 1
22 7
22 8
22 10
22 11
22 12
22 13
22 15
22 16
22 17
22 18
22 20
22 21
22 322
23 2
23 24
23 32
23 38
24 23
24 25
24 26
24 38
25 24
25 26
25 30
25 35
26 24
26 25
26 27
26 38
27 26
27 28
27 33
27 38
28 27
28 29
28 37
28 38
29 28
29 30
29 31
29 38
30 25
30 29
30 31
30 35
31 29
31 30
31 32
31 38
32 23
32 31
32 33
32 38
33 27
33 32
33 34
33 38
34 33
34 35
34 36
34 38
35 25
35 30
35 34
35 36
36 34
36 35
36 37
36 38
37 28
37 36
37 38
37 117
38 2
38 23
38 24
38 26
38 27
38 28
38 29
38 31
38 32
38 33
38 34
38 36
38 37
38 149
39 40
39 48
39 54
39 305
40 39
40 41
40 42
40 54
41 40
41 42
41 46
41 51
42 40
42 41
42 43
42 54
43 42
43 44
43 49
43 54
44 43
44 45
44 53
44 54
45 44
45 46
45 47
45 54
46 41
46 45
46 47
46 51
47 45
47 46
47 48
47 54
48 39
48 47
48 49
48 54
49 43
49 48
49 50
49 54
50 49
50 51
50 52
50 54
51 41
51 46
51 50
51 52
52 50
52 51
52 53
52 54
53 3
53 44
53 52
53 54
54 3
54 39
54 40
54 42
54 43
54 44
54 45
54 47
54 48
54 49
54 50
54 52
54 53
54 134
55 4
55 56
55 64
55 70
56 55
56 57
56 58
56 70
57 56
57 58
57 62
57 67
58 56
58 57
58 59
58 70
59 58
59 60
59 65
59 70
60 59
60 61
60 69
60 70
61 60
61 62
61 63
61 70
62 57
62 61
62 63
62 67
63 61
63 62
63 64
63 70
64 55
64 63
64 65
64 70
65 59
65 64
65 66
65 70
66 65
66 67
66 68
66 70
67 57
67 62
67 66
67 68
68 66
68 67
68 69
68 70
69 60
69 68
69 70
69 1054
70 4
70 55
70 56
70 58
70 59
70 60
70 61
70 63
70 64
70 65
70 66
70 68
70 69
70 134
71 72
71 80
71 86
71 235
72 71
72 73
72 74
72 86
73 72
73 74
73 78
73 83
74 72
74 73
74 75
74 86
75 74
75 76
75 81
75 86
76 75
76 77
76 85
76 86
77 76
77 78
77 79
77 86
78 73
78 77
78 79
78 83
79 77
79 78
79 80
79 86
80 71
80 79
80 81
80 86
81 75
81 80
81 82
81 86
82 81
82 83
82 84
82 86
83 73
83 78
83 82
83 84
84 82
84 83
84 85
84 86
85 5
85 76
85 84
85 86
86 5
86 71
86 72
86 74
86 75
86 76
86 77
86 79
86 80
86 81
86 82
86 84
86 85
86 133
87 6
87 88
87 96
87 102
88 87
88 89
88 90
88 102
89 88
89 90
89 94
89 99
90 88
90 89
90 91
90 102
91 90
91 92
91 97
91 102
92 91
92 93
92 101
92 102
93 92
93 94
93 95
93 102
94 89
94 93
94 95
94 99
95 93
95 94
95 96
95 102
96 87
96 95
96 97
96 102
97 91
97 96
97 98
97 102
98 97
98 99
98 100
98 102
99 89
99 94
99 98
99 100
100 98
100 99
100 101
100 102
101 92
101 100
101 102
101 150
102 6
102 87
102 88
102 90
102 91
102 92
102 93
102 95
102 96
102 97
102 98
102 100
102 101
102 323
103 104
103 112
103 118
103 321
104 103
104 105
104 106
104 118
105 104
105 106
105 110
105 115
106 104
106 105
106 107
106 118
107 106
107 108
107 113
107 118
108 107
108 109
108 117
108 118
109 108
109 110
109 111
109 118
110 105
110 109
110 111
110 115
111 109
111 110
111 112
111 118
112 103
112 111
112 113
112 118
113 107
113 112
113 114
113 118
114 113
114 115
114 116
114 118
115 105
115 110
115 114
115 116
116 114
116 115
116 117
116 118
117 37
117 108
117 116
117 118
118 7
118 103
118 104
118 106
118 107
118 108
118 109
118 111
118 112
118 113
118 114
118 116
118 117
118 236
119 120
119 128
119 134
119 343
120 119
120 121
120 122
120 134
121 120
121 122
121 126
121 131
122 120
122 121
122 123
122 134
123 122
123 124
123 129
123 134
124 123
124 125
124 133
124 134
125 124
125 126
125 127
125 134
126 121
126 125
126 127
126 131
127 125
127 126
127 128
127 134
128 119
128 127
128 129
128 134
129 123
129 128
129 130
129 134
130 129
130 131
130 132
130 134
131 121
131 126
131 130
131 132
132 130
132 131
132 133
132 134
133 86
133 124
133 132
133 134
134 54
134 70
134 119
134 120
134 122
134 123
134 124
134 125
134 127
134 128
134 129
134 130
134 132
134 133
135 136
135 144
135 150
135 322
136 135
136 137
136 138
136 150
137 136
137 138
137 142
137 147
138 136
138 137
138 139
138 150
139 138
139 140
139 145
139 150
140 139
140 141
140 149
140 150
141 140
141 142
141 143
141 150
142 137
142 141
142 143
142 147
143 141
143 142
143 144
143 150
144 135
144 143
144 145
144 150
145 139
145 144
145 146
145 150
146 145
146 147
146 148
146 150
147 137
147 142
147 146
147 148
148 146
148 147
148 149
148 150
149 38
149 140
149 148
149 150
150 101
150 135
150 136
150 138
150 139
150 140
150 141
150 143
150 144
150 145
150 146
150 148
150 149
150 236
151 153
151 155
151 170
151 171
152 154
152 171
152 220
152 236
153 151
153 155
153 172
153 187
154 152
154 188
154 204
154 236
155 151
155 153
155 202
155 203
156 157
156 165
156 171
156 219
157 156
157 158
157 159
157 171
158 157
158 159
158 163
158 168
159 157
159 158
159 160
159 171
160 159
160 161
160 166
160 171
161 160
161 162
161 170
161 171
162 161
162 163
162 164
162 171
163 158
163 162
163 164
163 168
164 162
164 163
164 165
164 171
165 156
165 164
165 166
165 171
166 160
166 165
166 167
166 171
167 166
167 168
167 169
167 171
168 158
168 163
168 167
168 169
169 167
169 168
169 170
169 171
170 151
170 161
170 169
170 171
171 151
171 152
171 156
171 157
171 159
171 160
171 161
171 162
171 164
171 165
171 166
171 167
171 169
171 170
172 153
172 173
172 181
172 187
173 172
173 174
173 175
173 187
174 173
174 175
174 179
174 184
175 173
175 174
175 176
175 187
176 175
176 177
176 182
176 187
177 176
177 178
177 186
177 187
178 177
178 179
178 180
178 187
179 174
179 178
179 180
179 184
180 178
180 179
180 181
180 187
181 172
181 180
181 182
181 187
182 176
182 181
182 183
182 187
183 182
183 184
183 185
183 187
184 174
184 179
184 183
184 185
185 183
185 184
185 186
185 187
186 177
186 185
186 187
186 218
187 153
187 172
187 173
187 175
187 176
187 177
187 178
187 180
187 181
187 182
187 183
187 185
187 186
187 234
188 154
188 189
188 197
188 203
189 188
189 190
189 191
189 203
190 189
190 191
190 195
190 200
191 189
191 190
191 192
191 203
192 191
192 193
192 198
192 203
193 192
193 194
193 202
193 203
194 193
194 195
194 196
194 203
195 190
195 194
195 196
195 200
196 194
196 195
196 197
196 203
197 188
197 196
197 198
197 203
198 192
198 197
198 199
198 203
199 198
199 200
199 201
199 203
200 190
200 195
200 199
200 201
201 199
201 200
201 202
201 203
202 155
202 193
202 201
202 203
203 155
203 188
203 189
203 191
203 192
203 193
203 194
203 196
203 197
203 198
203 199
203 201
203 202
203 235
204 154
204 205
204 213
204 219
205 204
205 206
205 207
205 219
206 205
206 207
206 211
206 216
207 205
207 206
207 208
207 219
208 207
208 209
208 214
208 219
209 208
209 210
209 218
209 219
210 209
210 211
210 212
210 219
211 206
211 210
211 212
211 216
212 210
212 211
212 213
212 219
213 204
213 212
213 214
213 219
214 208
214 213
214 215
214 219
215 214
215 216
215 217
215 219
216 206
216 211
216 215
216 217
217 215
217 216
217 218
217 219
218 186
218 209
218 217
218 219
219 156
219 204
219 205
219 207
219 208
219 209
219 210
219 212
219 213
219 214
219 215
219 217
219 218
219 1054
220 152
220 221
220 229
220 235
221 220
221 222
221 223
221 235
222 221
222 223
222 227
222 232
223 221
223 222
223 224
223 235
224 223
224 225
224 230
224 235
225 224
225 226
225 234
225 235
226 225
226 227
226 228
226 235
227 222
227 226
227 228
227 232
228 226
228 227
228 229
228 235
229 220
229 228
229 230
229 235
230 224
230 229
230 231
230 235
231 230
231 232
231 233
231 235
232 222
232 227
232 231
232 233
233 231
233 232
233 234
233 235
234 187
234 225
234 233
234 235
235 71
235 203
235 220
235 221
235 223
235 224
235 225
235 226
235 228
235 229
235 230
235 231
235 233
235 234
236 118
236 150
236 152
236 154
237 239
237 241
237 256
237 257
238 240
238 257
238 306
238 322
239 237
239 241
239 258
239 273
240 238
240 274
240 290
240 322
241 237
241 239
241 288
241 289
242 243
242 251
242 257
242 305
243 242
243 244
243 245
243 257
244 243
244 245
244 249
244 254
245 243
245 244
245 246
245 257
246 245
246 247
246 252
246 257
247 246
247 248
247 256
247 257
248 247
248 249
248 250
248 257
249 244
249 248
249 250
249 254
250 248
250 249
250 251
250 257
251 242
251 250
251 252
251 257
252 246
252 251
252 253
252 257
253 252
253 254
253 255
253 257
254 244
254 249
254 253
254 255
255 253
255 254
255 256
255 257
256 237
256 247
256 255
256 257
257 237
257 238
257 242
257 243
257 245
257 246
257 247
257 248
257 250
257 251
257 252
257 253
257 255
257 256
258 239
258 259
258 267
258 273
259 258
259 260
259 261
259 273
260 259
260 261
260 265
260 270
261 259
261 260
261 262
261 273
262 261
262 263
262 268
262 273
263 262
263 264
263 272
263 273
264 263
264 265
264 266
264 273
265 260
265 264
265 266
265 270
266 264
266 265
266 267
266 273
267 258
267 266
267 268
267 273
268 262
268 267
268 269
268 273
269 268
269 270
269 271
269 273
270 260
270 265
270 269
270 271
271 269
271 270
271 272
271 273
272 263
272 271
272 273
272 304
273 239
273 258
273 259
273 261
273 262
273 263
273 264
273 266
273 267
273 268
273 269
273 271
273 272
273 320
274 240
274 275
274 283
274 289
275 274
275 276
275 277
275 289
276 275
276 277
276 281
276 286
277 275
277 276
277 278
277 289
278 277
278 279
278 284
278 289
279 278
279 280
279 288
279 289
280 279
280 281
280 282
280 289
281 276
281 280
281 282
281 286
282 280
282 281
282 283
282 289
283 274
283 282
283 284
283 289
284 278
284 283
284 285
284 289
285 284
285 286
285 287
285 289
286 276
286 281
286 285
286 287
287 285
287 286
287 288
287 289
288 241
288 279
288 287
288 289
289 241
289 274
289 275
289 277
289 278
289 279
289 280
289 282
289 283
289 284
289 285
289 287
289 288
289 321
290 240
290 291
290 299
290 305
291 290
291 292
291 293
291 305
292 291
292 293
292 297
292 302
293 291
293 292
293 294
293 305
294 293
294 295
294 300
294 305
295 294
295 296
295 304
295 305
296 295
296 297
296 298
296 305
297 292
297 296
297 298
297 302
298 296
298 297
298 299
298 305
299 290
299 298
299 300
299 305
300 294
300 299
300 301
300 305
301 300
301 302
301 303
301 305
302 292
302 297
302 301
302 303
303 301
303 302
303 304
303 305
304 272
304 295
304 303
304 305
305 39
305 242
305 290
305 291
305 293
305 294
305 295
305 296
305 298
305 299
305 300
305 301
305 303
305 304
306 238
306 307
306 315
306 321
307 306
307 308
307 309
307 321
308 307
308 309
308 313
308 318
309 307
309 308
309 310
309 321
310 309
310 311
310 316
310 321
311 310
311 312
311 320
311 321
312 311
312 313
312 314
312 321
313 308
313 312
313 314
313 318
314 312
314 313
314 315
314 321
315 306
315 314
315 316
315 321
316 310
316 315
316 317
316 321
317 316
317 318
317 319
317 321
318 308
318 313
318 317
318 319
319 317
319 318
319 320
319 321
320 273
320 311
320 319
320 321
321 103
321 289
321 306
321 307
321 309
321 310
321 311
321 312
321 314
321 315
321 316
321 317
321 319
321 320
322 22
322 135
322 238
322 240
323 102
323 324
323 325
323 344
323 1054
324 323
324 325
324 345
324 360
325 323
325 324
325 375
325 376
326 327
326 328
326 377
326 392
327 326
327 328
327 407
327 408
328 326
328 327
328 409
328 424
329 330
329 338
329 344
329 440
330 329
330 331
330 332
330 344
331 330
331 332
331 336
331 341
332 330
332 331
332 333
332 344
333 332
333 334
333 339
333 344
334 333
334 335
334 343
334 344
335 334
335 336
335 337
335 344
336 331
336 335
336 337
336 341
337 335
337 336
337 338
337 344
338 329
338 337
338 339
338 344
339 333
339 338
339 340
339 344
340 339
340 341
340 342
340 344
341 331
341 336
341 340
341 342
342 340
342 341
342 343
342 344
343 119
343 334
343 342
343 344
343 1054
344 323
344 329
344 330
344 332
344 333
344 334
344 335
344 337
344 338
344 339
344 340
344 342
344 343
344 644
345 324
345 346
345 354
345 360
346 345
346 347
346 348
346 360
347 346
347 348
347 352
347 357
348 346
348 347
348 349
348 360
349 348
349 350
349 355
349 360
350 349
350 351
350 359
350 360
351 350
351 352
351 353
351 360
352 347
352 351
352 353
352 357
353 351
353 352
353 354
353 360
354 345
354 353
354 355
354 360
355 349
355 354
355 356
355 360
356 355
356 357
356 358
356 360
357 347
357 352
357 356
357 358
358 356
358 357
358 359
358 360
359 350
359 358
359 360
359 439
360 324
360 345
360 346
360 348
360 349
360 350
360 351
360 353
360 354
360 355
360 356
360 358
360 359
360 471
361 362
361 370
361 376
361 627
362 361
362 363
362 364
362 376
363 362
363 364
363 368
363 373
364 362
364 363
364 365
364 376
365 364
365 366
365 371
365 376
366 365
366 367
366 375
366 376
367 366
367 368
367 369
367 376
368 363
368 367
368 369
368 373
369 367
369 368
369 370
369 376
370 361
370 369
370 371
370 376
371 365
371 370
371 372
371 376
372 371
372 373
372 374
372 376
373 363
373 368
373 372
373 374
374 372
374 373
374 375
374 376
375 325
375 366
375 374
375 376
376 325
376 361
376 362
376 364
376 365
376 366
376 367
376 369
376 370
376 371
376 372
376 374
376 375
376 456
377 326
377 378
377 386
377 392
378 377
378 379
378 380
378 392
379 378
379 380
379 384
379 389
380 378
380 379
380 381
380 392
381 380
381 382
381 387
381 392
382 381
382 383
382 391
382 392
383 382
383 384
383 385
383 392
384 379
384 383
384 385
384 389
385 383
385 384
385 386
385 392
386 377
386 385
386 387
386 392
387 381
387 386
387 388
387 392
388 387
388 389
388 390
388 392
389 379
389 384
389 388
389 390
390 388
390 389
390 391
390 392
391 382
391 390
391 392
391 1053
392 326
392 377
392 378
392 380
392 381
392 382
392 383
392 385
392 386
392 387
392 388
392 390
392 391
392 456
393 394
393 402
393 408
393 557
394 393
394 395
394 396
394 408
395 394
395 396
395 400
395 405
396 394
396 395
396 397
396 408
397 396
397 398
397 403
397 408
398 397
398 399
398 407
398 408
399 398
399 400
399 401
399 408
400 395
400 399
400 401
400 405
401 399
401 400
401 402
401 408
402 393
402 401
402 403
402 408
403 397
403 402
403 404
403 408
404 403
404 405
404 406
404 408
405 395
405 400
405 404
405 406
406 404
406 405
406 407
406 408
407 327
407 398
407 406
407 408
408 327
408 393
408 394
408 396
408 397
408 398
408 399
408 401
408 402
408 403
408 404
408 406
408 407
408 455
409 328
409 410
409 418
409 424
410 409
410 411
410 412
410 424
411 410
411 412
411 416
411 421
412 410
412 411
412 413
412 424
413 412
413 414
413 419
413 424
414 413
414 415
414 423
414 424
415 414
415 416
415 417
415 424
416 411
416 415
416 417
416 421
417 415
417 416
417 418
417 424
418 409
418 417
418 419
418 424
419 413
419 418
419 420
419 424
420 419
420 421
420 422
420 424
421 411
421 416
421 420
421 422
422 420
422 421
422 423
422 424
423 414
423 422
423 424
423 472
424 328
424 409
424 410
424 412
424 413
424 414
424 415
424 417
424 418
424 419
424 420
424 422
424 423
424 645
425 426
425 434
425 440
425 643
426 425
426 427
426 428
426 440
427 426
427 428
427 432
427 437
428 426
428 427
428 429
428 440
429 428
429 430
429 435
429 440
430 429
430 431
430 439
430 440
431 430
431 432
431 433
431 440
432 427
432 431
432 433
432 437
433 431
433 432
433 434
433 440
434 425
434 433
434 435
434 440
435 429
435 434
435 436
435 440
436 435
436 437
436 438
436 440
437 427
437 432
437 436
437 438
438 436
438 437
438 439
438 440
439 359
439 430
439 438
439 440
440 329
440 425
440 426
440 428
440 429
440 430
440 431
440 433
440 434
440 435
440 436
440 438
440 439
440 558
441 442
441 450
441 456
441 665
442 441
442 443
442 444
442 456
443 442
443 444
443 448
443 453
444 442
444 443
444 445
444 456
445 444
445 446
445 451
445 456
446 445
446 447
446 455
446 456
447 446
447 448
447 449
447 456
448 443
448 447
448 449
448 453
449 447
449 448
449 450
449 456
450 441
450 449
450 451
450 456
451 445
451 450
451 452
451 456
452 451
452 453
452 454
452 456
453 443
453 448
453 452
453 454
454 452
454 453
454 455
454 456
455 408
455 446
455 454
455 456
456 376
456 392
456 441
456 442
456 444
456 445
456 446
456 447
456 449
456 450
456 451
456 452
456 454
456 455
457 458
457 466
457 472
457 644
458 457
458 459
458 460
458 472
459 458
459 460
459 464
459 469
460 458
460 459
460 461
460 472
461 460
461 462
461 467
461 472
462 461
462 463
462 471
462 472
463 462
463 464
463 465
463 472
464 459
464 463
464 465
464 469
465 463
465 464
465 466
465 472
466 457
466 465
466 467
466 472
467 461
467 466
467 468
467 472
468 467
468 469
468 470
468 472
469 459
469 464
469 468
469 470
470 468
470 469
470 471
470 472
471 360
471 462
471 470
471 472
472 423
472 457
472 458
472 460
472 461
472 462
472 463
472 465
472 466
472 467
472 468
472 470
472 471
472 558
473 475
473 477
473 492
473 493
474 476
474 493
474 542
474 558
475 473
475 477
475 494
475 509
476 474
476 510
476 526
476 558
477 473
477 475
477 524
477 525
478 479
478 487
478 493
478 541
479 478
479 480
479 481
479 493
480 479
480 481
480 485
480 490
481 479
481 480
481 482
481 493
482 481
482 483
482 488
482 493
483 482
483 484
483 492
483 493
484 483
484 485
484 486
484 493
485 480
485 484
485 486
485 490
486 484
486 485
486 487
486 493
487 478
487 486
487 488
487 493
488 482
488 487
488 489
488 493
489 488
489 490
489 491
489 493
490 480
490 485
490 489
490 491
491 489
491 490
491 492
491 493
492 473
492 483
492 491
492 493
493 473
493 474
493 478
493 479
493 481
493 482
493 483
493 484
493 486
493 487
493 488
493 489
493 491
493 492
494 475
494 495
494 503
494 509
495 494
495 496
495 497
495 509
496 495
496 497
496 501
496 506
497 495
497 496
497 498
497 509
498 497
498 499
498 504
498 509
499 498
499 500
499 508
499 509
500 499
500 501
500 502
500 509
501 496
501 500
501 502
501 506
502 500
502 501
502 503
502 509
503 494
503 502
503 504
503 509
504 498
504 503
504 505
504 509
505 504
505 506
505 507
505 509
506 496
506 501
506 505
506 507
507 505
507 506
507 508
507 509
508 499
508 507
508 509
508 540
509 475
509 494
509 495
509 497
509 498
509 499
509 500
509 502
509 503
509 504
509 505
509 507
509 508
509 556
510 476
510 511
510 519
510 525
511 510
511 512
511 513
511 525
512 511
512 513
512 517
512 522
513 511
513 512
513 514
513 525
514 513
514 515
514 520
514 525
515 514
515 516
515 524
515 525
516 515
516 517
516 518
516 525
517 512
517 516
517 518
517 522
518 516
518 517
518 519
518 525
519 510
519 518
519 520
519 525
520 514
520 519
520 521
520 525
521 520
521 522
521 523
521 525
522 512
522 517
522 521
522 523
523 521
523 522
523 524
523 525
524 477
524 515
524 523
524 525
525 477
525 510
525 511
525 513
525 514
525 515
525 516
525 518
525 519
525 520
525 521
525 523
525 524
525 557
526 476
526 527
526 535
526 541
527 526
527 528
527 529
527 541
528 527
528 529
528 533
528 538
529 527
529 528
529 530
529 541
530 529
530 531
530 536
530 541
531 530
531 532
531 540
531 541
532 531
532 533
532 534
532 541
533 528
533 532
533 534
533 538
534 532
534 533
534 535
534 541
535 526
535 534
535 536
535 541
536 530
536 535
536 537
536 541
537 536
537 538
537 539
537 541
538 528
538 533
538 537
538 539
539 537
539 538
539 540
539 541
540 508
540 531
540 539
540 541
541 478
541 526
541 527
541 529
541 530
541 531
541 532
541 534
541 535
541 536
541 537
541 539
541 540
541 1053
542 474
542 543
542 551
542 557
543 542
543 544
543 545
543 557
544 543
544 545
544 549
544 554
545 543
545 544
545 546
545 557
546 545
546 547
546 552
546 557
547 546
547 548
547 556
547 557
548 547
548 549
548 550
548 557
549 544
549 548
549 550
549 554
550 548
550 549
550 551
550 557
551 542
551 550
551 552
551 557
552 546
552 551
552 553
552 557
553 552
553 554
553 555
553 557
554 544
554 549
554 553
554 555
555 553
555 554
555 556
555 557
556 509
556 547
556 555
556 557
557 393
557 525
557 542
557 543
557 545
557 546
557 547
557 548
557 550
557 551
557 552
557 553
557 555
557 556
558 440
558 472
558 474
558 476
559 561
559 563
559 578
559 579
560 562
560 579
560 628
560 644
561 559
561 563
561 580
561 595
562 560
562 596
562 612
562 644
563 559
563 561
563 610
563 611
564 565
564 573
564 579
564 627
565 564
565 566
565 567
565 579
566 565
566 567
566 571
566 576
567 565
567 566
567 568
567 579
568 567
568 569
568 574
568 579
569 568
569 570
569 578
569 579
570 569
570 571
570 572
570 579
571 566
571 570
571 572
571 576
572 570
572 571
572 573
572 579
573 564
573 572
573 574
573 579
574 568
574 573
574 575
574 579
575 574
575 576
575 577
575 579
576 566
576 571
576 575
576 577
577 575
577 576
577 578
577 579
578 559
578 569
578 577
578 579
579 559
579 560
579 564
579 565
579 567
579 568
579 569
579 570
579 572
579 573
579 574
579 575
579 577
579 578
580 561
580 581
580 589
580 595
581 580
581 582
581 583
581 595
582 581
582 583
582 587
582 592
583 581
583 582
583 584
583 595
584 583
584 585
584 590
584 595
585 584
585 586
585 594
585 595
586 585
586 587
586 588
586 595
587 582
587 586
587 588
587 592
588 586
588 587
588 589
588 595
589 580
589 588
589 590
589 595
590 584
590 589
590 591
590 595
591 590
591 592
591 593
591 595
592 582
592 587
592 591
592 593
593 591
593 592
593 594
593 595
594 585
594 593
594 595
594 626
595 561
595 580
595 581
595 583
595 584
595 585
595 586
595 588
595 589
595 590
595 591
595 593
595 594
595 642
596 562
596 597
596 605
596 611
597 596
597 598
597 599
597 611
598 597
598 599
598 603
598 608
599 597
599 598
599 600
599 611
600 599
600 601
600 606
600 611
601 600
601 602
601 610
601 611
602 601
602 603
602 604
602 611
603 598
603 602
603 604
603 608
604 602
604 603
604 605
604 611
605 596
605 604
605 606
605 611
606 600
606 605
606 607
606 611
607 606
607 608
607 609
607 611
608 598
608 603
608 607
608 609
609 607
609 608
609 610
609 611
610 563
610 601
610 609
610 611
611 563
611 596
611 597
611 599
611 600
611 601
611 602
611 604
611 605
611 606
611 607
611 609
611 610
611 643
612 562
612 613
612 621
612 627
613 612
613 614
613 615
613 627
614 613
614 615
614 619
614 624
615 613
615 614
615 616
615 627
616 615
616 617
616 622
616 627
617 616
617 618
617 626
617 627
618 617
618 619
618 620
618 627
619 614
619 618
619 620
619 624
620 618
620 619
620 621
620 627
621 612
621 620
621 622
621 627
622 616
622 621
622 623
622 627
623 622
623 624
623 625
623 627
624 614
624 619
624 623
624 625
625 623
625 624
625 626
625 627
626 594
626 617
626 625
626 627
627 361
627 564
627 612
627 613
627 615
627 616
627 617
627 618
627 620
627 621
627 622
627 623
627 625
627 626
628 560
628 629
628 637
628 643
629 628
629 630
629 631
629 643
630 629
630 631
630 635
630 640
631 629
631 630
631 632
631 643
632 631
632 633
632 638
632 643
633 632
633 634
633 642
633 643
634 633
634 635
634 636
634 643
635 630
635 634
635 636
635 640
636 634
636 635
636 637
636 643
637 628
637 636
637 638
637 643
638 632
638 637
638 639
638 643
639 638
639 640
639 641
639 643
640 630
640 635
640 639
640 641
641 639
641 640
641 642
641 643
642 595
642 633
642 641
642 643
643 425
643 611
643 628
643 629
643 631
643 632
643 633
643 634
643 636
643 637
643 638
643 639
643 641
643 642
644 344
644 457
644 560
644 562
645 424
645 646
645 647
645 666
645 1053
646 645
646 647
646 667
646 682
647 645
647 646
647 697
647 698
648 649
648 650
648 699
648 714
649 648
649 650
649 729
649 730
650 648
650 649
650 731
650 746
651 652
651 660
651 666
651 762
652 651
652 653
652 654
652 666
653 652
653 654
653 658
653 663
654 652
654 653
654 655
654 666
655 654
655 656
655 661
655 666
656 655
656 657
656 665
656 666
657 656
657 658
657 659
657 666
658 653
658 657
658 659
658 663
659 657
659 658
659 660
659 666
660 651
660 659
660 661
660 666
661 655
661 660
661 662
661 666
662 661
662 663
662 664
662 666
663 653
663 658
663 662
663 664
664 662
664 663
664 665
664 666
665 441
665 656
665 664
665 666
665 1053
666 645
666 651
666 652
666 654
666 655
666 656
666 657
666 659
666 660
666 661
666 662
666 664
666 665
666 966
667 646
667 668
667 676
667 682
668 667
668 669
668 670
668 682
669 668
669 670
669 674
669 679
670 668
670 669
670 671
670 682
671 670
671 672
671 677
671 682
672 671
672 673
672 681
672 682
673 672
673 674
673 675
673 682
674 669
674 673
674 675
674 679
675 673
675 674
675 676
675 682
676 667
676 675
676 677
676 682
677 671
677 676
677 678
677 682
678 677
678 679
678 680
678 682
679 669
679 674
679 678
679 680
680 678
680 679
680 681
680 682
681 672
681 680
681 682
681 761
682 646
682 667
682 668
682 670
682 671
682 672
682 673
682 675
682 676
682 677
682 678
682 680
682 681
682 793
683 684
683 692
683 698
683 949
684 683
684 685
684 686
684 698
685 684
685 686
685 690
685 695
686 684
686 685
686 687
686 698
687 686
687 688
687 693
687 698
688 687
688 689
688 697
688 698
689 688
689 690
689 691
689 698
690 685
690 689
690 691
690 695
691 689
691 690
691 692
691 698
692 683
692 691
692 693
692 698
693 687
693 692
693 694
693 698
694 693
694 695
694 696
694 698
695 685
695 690
695 694
695 696
696 694
696 695
696 697
696 698
697 647
697 688
697 696
697 698
698 647
698 683
698 684
698 686
698 687
698 688
698 689
698 691
698 692
698 693
698 694
698 696
698 697
698 778
699 648
699 700
699 708
699 714
700 699
700 701
700 702
700 714
701 700
701 702
701 706
701 711
702 700
702 701
702 703
702 714
703 702
703 704
703 709
703 714
704 703
704 705
704 713
704 714
705 704
705 706
705 707
705 714
706 701
706 705
706 707
706 711
707 705
707 706
707 708
707 714
708 699
708 707
708 709
708 714
709 703
709 708
709 710
709 714
710 709
710 711
710 712
710 714
711 701
711 706
711 710
711 712
712 710
712 711
712 713
712 714
713 704
713 712
713 714
713 1052
714 648
714 699
714 700
714 702
714 703
714 704
714 705
714 707
714 708
714 709
714 710
714 712
714 713
714 778
715 716
715 724
715 730
715 879
716 715
716 717
716 718
716 730
717 716
717 718
717 722
717 727
718 716
718 717
718 719
718 730
719 718
719 720
719 725
719 730
720 719
720 721
720 729
720 730
721 720
721 722
721 723
721 730
722 717
722 721
722 723
722 727
723 721
723 722
723 724
723 730
724 715
724 723
724 725
724 730
725 719
725 724
725 726
725 730
726 725
726 727
726 728
726 730
727 717
727 722
727 726
727 728
728 726
728 727
728 729
728 730
729 649
729 720
729 728
729 730
730 649
730 715
730 716
730 718
730 719
730 720
730 721
730 723
730 724
730 725
730 726
730 728
730 729
730 777
731 650
731 732
731 740
731 746
732 731
732 733
732 734
732 746
733 732
733 734
733 738
733 743
734 732
734 733
734 735
734 746
735 734
735 736
735 741
735 746
736 735
736 737
736 745
736 746
737 736
737 738
737 739
737 746
738 733
738 737
738 739
738 743
739 737
739 738
739 740
739 746
740 731
740 739
740 741
740 746
741 735
741 740
741 742
741 746
742 741
742 743
742 744
742 746
743 733
743 738
743 742
743 744
744 742
744 743
744 745
744 746
745 736
745 744
745 746
745 794
746 650
746 731
746 732
746 734
746 735
746 736
746 737
746 739
746 740
746 741
746 742
746 744
746 745
746 1035
747 748
747 756
747 762
747 965
748 747
748 749
748 750
748 762
749 748
749 750
749 754
749 759
750 748
750 749
750 751
750 762
751 750
751 752
751 757
751 762
752 751
752 753
752 761
752 762
753 752
753 754
753 755
753 762
754 749
754 753
754 755
754 759
755 753
755 754
755 756
755 762
756 747
756 755
756 757
756 762
757 751
757 756
757 758
757 762
758 757
758 759
758 760
758 762
759 749
759 754
759 758
759 760
760 758
760 759
760 761
760 762
761 681
761 752
761 760
761 762
762 651
762 747
762 748
762 750
762 751
762 752
762 753
762 755
762 756
762 757
762 758
762 760
762 761
762 880
763 764
763 772
763 778
763 1051
764 763
764 765
764 766
764 778
765 764
765 766
765 770
765 775
766 764
766 765
766 767
766 778
767 766
767 768
767 773
767 778
768 767
768 769
768 777
768 778
769 768
769 770
769 771
769 778
770 765
770 769
770 771
770 775
771 769
771 770
771 772
771 778
772 763
772 771
772 773
772 778
773 767
773 772
773 774
773 778
774 773
774 775
774 776
774 778
775 765
775 770
775 774
775 776
776 774
776 775
776 777
776 778
777 730
777 768
777 776
777 778
778 698
778 714
778 763
778 764
778 766
778 767
778 768
778 769
778 771
778 772
778 773
778 774
778 776
778 777
779 780
779 788
779 794
779 966
780 779
780 781
780 782
780 794
781 780
781 782
781 786
781 791
782 780
782 781
782 783
782 794
783 782
783 784
783 789
783 794
784 783
784 785
784 793
784 794
785 784
785 786
785 787
785 794
786 781
786 785
786 787
786 791
787 785
787 786
787 788
787 794
788 779
788 787
788 789
788 794
789 783
789 788
789 790
789 794
790 789
790 791
790 792
790 794
791 781
791 786
791 790
791 792
792 790
792 791
792 793
792 794
793 682
793 784
793 792
793 794
794 745
794 779
794 780
794 782
794 783
794 784
794 785
794 787
794 788
794 789
794 790
794 792
794 793
794 880
795 797
795 799
795 814
795 815
796 798
796 815
796 864
796 880
797 795
797 799
797 816
797 831
798 796
798 832
798 848
798 880
799 795
799 797
799 846
799 847
800 801
800 809
800 815
800 863
801 800
801 802
801 803
801 815
802 801
802 803
802 807
802 812
803 801
803 802
803 804
803 815
804 803
804 805
804 810
804 815
805 804
805 806
805 814
805 815
806 805
806 807
806 808
806 815
807 802
807 806
807 808
807 812
808 806
808 807
808 809
808 815
809 800
809 808
809 810
809 815
810 804
810 809
810 811
810 815
811 810
811 812
811 813
811 815
812 802
812 807
812 811
812 813
813 811
813 812
813 814
813 815
814 795
814 805
814 813
814 815
815 795
815 796
815 800
815 801
815 803
815 804
815 805
815 806
815 808
815 809
815 810
815 811
815 813
815 814
816 797
816 817
816 825
816 831
817 816
817 818
817 819
817 831
818 817
818 819
818 823
818 828
819 817
819 818
819 820
819 831
820 819
820 821
820 826
820 831
821 820
821 822
821 830
821 831
822 821
822 823
822 824
822 831
823 818
823 822
823 824
823 828
824 822
824 823
824 825
824 831
825 816
825 824
825 826
825 831
826 820
826 825
826 827
826 831
827 826
827 828
827 829
827 831
828 818
828 823
828 827
828 829
829 827
829 828
829 830
829 831
830 821
830 829
830 831
830 862
831 797
831 816
831 817
831 819
831 820
831 821
831 822
831 824
831 825
831 826
831 827
831 829
831 830
831 878
832 798
832 833
832 841
832 847
833 832
833 834
833 835
833 847
834 833
834 835
834 839
834 844
835 833
835 834
835 836
835 847
836 835
836 837
836 842
836 847
837 836
837 838
837 846
837 847
838 837
838 839
838 840
838 847
839 834
839 838
839 840
839 844
840 838
840 839
840 841
840 847
841 832
841 840
841 842
841 847
842 836
842 841
842 843
842 847
843 842
843 844
843 845
843 847
844 834
844 839
844 843
844 845
845 843
845 844
845 846
845 847
846 799
846 837
846 845
846 847
847 799
847 832
847 833
847 835
847 836
847 837
847 838
847 840
847 841
847 842
847 843
847 845
847 846
847 879
848 798
848 849
848 857
848 863
849 848
849 850
849 851
849 863
850 849
850 851
850 855
850 860
851 849
851 850
851 852
851 863
852 851
852 853
852 858
852 863
853 852
853 854
853 862
853 863
854 853
854 855
854 856
854 863
855 850
855 854
855 856
855 860
856 854
856 855
856 857
856 863
857 848
857 856
857 858
857 863
858 852
858 857
858 859
858 863
859 858
859 860
859 861
859 863
860 850
860 855
860 859
860 861
861 859
861 860
861 862
861 863
862 830
862 853
862 861
862 863
863 800
863 848
863 849
863 851
863 852
863 853
863 854
863 856
863 857
863 858
863 859
863 861
863 862
863 1052
864 796
864 865
864 873
864 879
865 864
865 866
865 867
865 879
866 865
866 867
866 871
866 876
867 865
867 866
867 868
867 879
868 867
868 869
868 874
868 879
869 868
869 870
869 878
869 879
870 869
870 871
870 872
870 879
871 866
871 870
871 872
871 876
872 870
872 871
872 873
872 879
873 864
873 872
873 874
873 879
874 868
874 873
874 875
874 879
875 874
875 876
875 877
875 879
876 866
876 871
876 875
876 877
877 875
877 876
877 878
877 879
878 831
878 869
878 877
878 879
879 715
879 847
879 864
879 865
879 867
879 868
879 869
879 870
879 872
879 873
879 874
879 875
879 877
879 878
880 762
880 794
880 796
880 798
881 883
881 885
881 900
881 901
882 884
882 901
882 950
882 966
883 881
883 885
883 902
883 917
884 882
884 918
884 934
884 966
885 881
885 883
885 932
885 933
886 887
886 895
886 901
886 949
887 886
887 888
887 889
887 901
888 887
888 889
888 893
888 898
889 887
889 888
889 890
889 901
890 889
890 891
890 896
890 901
891 890
891 892
891 900
891 901
892 891
892 893
892 894
892 901
893 888
893 892
893 894
893 898
894 892
894 893
894 895
894 901
895 886
895 894
895 896
895 901
896 890
896 895
896 897
896 901
897 896
897 898
897 899
897 901
898 888
898 893
898 897
898 899
899 897
899 898
899 900
899 901
900 881
900 891
900 899
900 901
901 881
901 882
901 886
901 887
901 889
901 890
901 891
901 892
901 894
901 895
901 896
901 897
901 899
901 900
902 883
902 903
902 911
902 917
903 902
903 904
903 905
903 917
904 903
904 905
904 909
904 914
905 903
905 904
905 906
905 917
906 905
906 907
906 912
906 917
907 906
907 908
907 916
907 917
908 907
908 909
908 910
908 917
909 904
909 908
909 910
909 914
910 908
910 909
910 911
910 917
911 902
911 910
911 912
911 917
912 906
912 911
912 913
912 917
913 912
913 914
913 915
913 917
914 904
914 909
914 913
914 915
915 913
915 914
915 916
915 917
916 907
916 915
916 917
916 948
917 883
917 902
917 903
917 905
917 906
917 907
917 908
917 910
917 911
917 912
917 913
917 915
917 916
917 964
918 884
918 919
918 927
918 933
919 918
919 920
919 921
919 933
920 919
920 921
920 925
920 930
921 919
921 920
921 922
921 933
922 921
922 923
922 928
922 933
923 922
923 924
923 932
923 933
924 923
924 925
924 926
924 933
925 920
925 924
925 926
925 930
926 924
926 925
926 927
926 933
927 918
927 926
927 928
927 933
928 922
928 927
928 929
928 933
929 928
929 930
929 931
929 933
930 920
930 925
930 929
930 931
931 929
931 930
931 932
931 933
932 885
932 923
932 931
932 933
933 885
933 918
933 919
933 921
933 922
933 923
933 924
933 926
933 927
933 928
933 929
933 931
933 932
933 965
934 884
934 935
934 943
934 949
935 934
935 936
935 937
935 949
936 935
936 937
936 941
936 946
937 935
937 936
937 938
937 949
938 937
938 939
938 944
938 949
939 938
939 940
939 948
939 949
940 939
940 941
940 942
940 949
941 936
941 940
941 942
941 946
942 940
942 941
942 943
942 949
943 934
943 942
943 944
943 949
944 938
944 943
944 945
944 949
945 944
945 946
945 947
945 949
946 936
946 941
946 945
946 947
947 945
947 946
947 948
947 949
948 916
948 939
948 947
948 949
949 683
949 886
949 934
949 935
949 937
949 938
949 939
949 940
949 942
949 943
949 944
949 945
949 947
949 948
950 882
950 951
950 959
950 965
951 950
951 952
951 953
951 965
952 951
952 953
952 957
952 962
953 951
953 952
953 954
953 965
954 953
954 955
954 960
954 965
955 954
955 956
955 964
955 965
956 955
956 957
956 958
956 965
957 952
957 956
957 958
957 962
958 956
958 957
958 959
958 965
959 950
959 958
959 960
959 965
960 954
960 959
960 961
960 965
961 960
961 962
961 963
961 965
962 952
962 957
962 961
962 963
963 961
963 962
963 964
963 965
964 917
964 955
964 963
964 965
965 747
965 933
965 950
965 951
965 953
965 954
965 955
965 956
965 958
965 959
965 960
965 961
965 963
965 964
966 666
966 779
966 882
966 884
967 969
967 971
967 986
967 987
968 970
968 987
968 1036
968 1052
969 967
969 971
969 988
969 1003
970 968
970 1004
970 1020
970 1052
971 967
971 969
971 1018
971 1019
972 973
972 981
972 987
972 1035
973 972
973 974
973 975
973 987
974 973
974 975
974 979
974 984
975 973
975 974
975 976
975 987
976 975
976 977
976 982
976 987
977 976
977 978
977 986
977 987
978 977
978 979
978 980
978 987
979 974
979 978
979 980
979 984
980 978
980 979
980 981
980 987
981 972
981 980
981 982
981 987
982 976
982 981
982 983
982 987
983 982
983 984
983 985
983 987
984 974
984 979
984 983
984 985
985 983
985 984
985 986
985 987
986 967
986 977
986 985
986 987
987 967
987 968
987 972
987 973
987 975
987 976
987 977
987 978
987 980
987 981
987 982
987 983
987 985
987 986
988 969
988 989
988 997
988 1003
989 988
989 990
989 991
989 1003
990 989
990 991
990 995
990 1000
991 989
991 990
991 992
991 1003
992 991
992 993
992 998
992 1003
993 992
993 994
993 1002
993 1003
994 993
994 995
994 996
994 1003
995 990
995 994
995 996
995 1000
996 994
996 995
996 997
996 1003
997 988
997 996
997 998
997 1003
998 992
998 997
998 999
998 1003
999 998
999 1000
999 1001
999 1003
1000 990
1000 995
1000 999
1000 1001
1001 999
1001 1000
1001 1002
1001 1003
1002 993
1002 1001
1002 1003
1002 1034
1003 969
1003 988
1003 989
1003 991
1003 992
1003 993
1003 994
1003 996
1003 997
1003 998
1003 999
1003 1001
1003 1002
1003 1050
1004 970
1004 1005
1004 1013
1004 1019
1005 1004
1005 1006
1005 1007
1005 1019
1006 1005
1006 1007
1006 1011
1006 1016
1007 1005
1007 1006
1007 1008
1007 1019
1008 1007
1008 1009
1008 1014
1008 1019
1009 1008
1009 1010
1009 1018
1009 1019
1010 1009
1010 1011
1010 1012
1010 1019
1011 1006
1011 1010
1011 1012
1011 1016
1012 1010
1012 1011
1012 1013
1012 1019
1013 1004
1013 1012
1013 1014
1013 1019
1014 1008
1014 1013
1014 1015
1014 1019
1015 1014
1015 1016
1015 1017
1015 1019
1016 1006
1016 1011
1016 1015
1016 1017
1017 1015
1017 1016
1017 1018
1017 1019
1018 971
1018 1009
1018 1017
1018 1019
1019 971
1019 1004
1019 1005
1019 1007
1019 1008
1019 1009
1019 1010
1019 1012
1019 1013
1019 1014
1019 1015
1019 1017
1019 1018
1019 1051
1020 970
1020 1021
1020 1029
1020 1035
1021 1020
1021 1022
1021 1023
1021 1035
1022 1021
1022 1023
1022 1027
1022 1032
1023 1021
1023 1022
1023 1024
1023 1035
1024 1023
1024 1025
1024 1030
1024 1035
1025 1024
1025 1026
1025 1034
1025 1035
1026 1025
1026 1027
1026 1028
1026 1035
1027 1022
1027 1026
1027 1028
1027 1032
1028 1026
1028 1027
1028 1029
1028 1035
1029 1020
1029 1028
1029 1030
1029 1035
1030 1024
1030 1029
1030 1031
1030 1035
1031 1030
1031 1032
1031 1033
1031 1035
1032 1022
1032 1027
1032 1031
1032 1033
1033 1031
1033 1032
1033 1034
1033 1035
1034 1002
1034 1025
1034 1033
1034 1035
1035 746
1035 972
1035 1020
1035 1021
1035 1023
1035 1024
1035 1025
1035 1026
1035 1028
1035 1029
1035 1030
1035 1031
1035 1033
1035 1034
1036 968
1036 1037
1036 1045
1036 1051
1037 1036
1037 1038
1037 1039
1037 1051
1038 1037
1038 1039
1038 1043
1038 1048
1039 1037
1039 1038
1039 1040
1039 1051
1040 1039
1040 1041
1040 1046
1040 1051
1041 1040
1041 1042
1041 1050
1041 1051
1042 1041
1042 1043
1042 1044
1042 1051
1043 1038
1043 1042
1043 1044
1043 1048
1044 1042
1044 1043
1044 1045
1044 1051
1045 1036
1045 1044
1045 1046
1045 1051
1046 1040
1046 1045
1046 1047
1046 1051
1047 1046
1047 1048
1047 1049
1047 1051
1048 1038
1048 1043
1048 1047
1048 1049
1049 1047
1049 1048
1049 1050
1049 1051
1050 1003
1050 1041
1050 1049
1050 1051
1051 763
1051 1019
1051 1036
1051 1037
1051 1039
1051 1040
1051 1041
1051 1042
1051 1044
1051 1045
1051 1046
1051 1047
1051 1049
1051 1050
1052 713
1052 863
1052 968
1052 970
1053 391
1053 541
1053 645
1053 665
1054 69
1054 219
1054 323
1054 343
-1
EOF